(declare-fun var0 () String)
(assert (str.in.re var0 (re.++ (re.+ (re.* (str.to.re "\\\\"))) (re.++ (re.+ (re.union (str.to.re "@@@") (str.to.re "["))) (re.++ (re.* (re.union (str.to.re ">") (str.to.re "???"))) (re.++ (re.union (re.union (str.to.re ";;") (str.to.re "<<")) (re.* (str.to.re "==="))) (re.++ (re.union (re.union (str.to.re ".") (str.to.re "//")) (re.+ (str.to.re "::"))) (re.++ (re.+ (re.* (str.to.re "-"))) (re.++ (re.+ (re.union (str.to.re "+") (str.to.re ","))) (re.++ (re.* (re.union (str.to.re "))") (str.to.re "*"))) (re.++ (re.+ (re.+ (str.to.re "("))) (re.++ (re.* (re.+ (str.to.re "'''"))) (re.++ (re.union (re.* (str.to.re "%%%")) (re.+ (str.to.re "&&"))) (re.++ (re.union (re.union (str.to.re "!!") (str.to.re """""""")) (re.union (str.to.re "##") (str.to.re "$$"))) (re.++ (re.+ (re.union (str.to.re "YY") (str.to.re "Z"))) (re.++ (re.+ (re.+ (str.to.re "XX"))) (re.++ (re.* (re.* (str.to.re "W"))) (re.++ (re.* (re.union (str.to.re "UU") (str.to.re "V"))) (re.++ (re.union (re.union (str.to.re "RRR") (str.to.re "S")) (re.* (str.to.re "TTT"))) (re.++ (re.+ (re.* (str.to.re "Q"))) (re.++ (re.+ (re.+ (str.to.re "P"))) (re.++ (re.union (re.+ (str.to.re "MM")) (re.union (str.to.re "NNN") (str.to.re "OO"))) (re.++ (re.union (re.union (str.to.re "JJ") (str.to.re "KKK")) (re.+ (str.to.re "LLL"))) (re.++ (re.+ (re.union (str.to.re "H") (str.to.re "I"))) (re.++ (re.* (re.+ (str.to.re "GGG"))) (re.++ (re.* (re.+ (str.to.re "FF"))) (re.++ (re.* (re.* (str.to.re "EE"))) (re.++ (re.union (re.+ (str.to.re "BB")) (re.union (str.to.re "CCC") (str.to.re "DDD"))) (re.++ (re.union (re.union (str.to.re "yy") (str.to.re "zzz")) (re.+ (str.to.re "AA"))) (re.++ (re.* (re.+ (str.to.re "x"))) (re.++ (re.union (re.union (str.to.re "uu") (str.to.re "vv")) (re.+ (str.to.re "ww"))) (re.++ (re.+ (re.* (str.to.re "ttt"))) (re.++ (re.+ (re.+ (str.to.re "ss"))) (re.++ (re.* (re.* (str.to.re "rrr"))) (re.++ (re.union (re.union (str.to.re "nn") (str.to.re "oo")) (re.union (str.to.re "p") (str.to.re "qq"))) (re.++ (re.union (re.+ (str.to.re "kkk")) (re.union (str.to.re "lll") (str.to.re "mm"))) (re.++ (re.* (re.union (str.to.re "ii") (str.to.re "jjj"))) (re.++ (re.union (re.* (str.to.re "ff")) (re.union (str.to.re "gg") (str.to.re "hh"))) (re.++ (re.union (re.union (str.to.re "cc") (str.to.re "ddd")) (re.* (str.to.re "e"))) (re.++ (re.union (re.+ (str.to.re "a")) (re.+ (str.to.re "bb"))) (re.++ (re.* (re.+ (str.to.re "9"))) (re.++ (re.union (re.+ (str.to.re "7")) (re.* (str.to.re "8"))) (re.++ (re.+ (re.union (str.to.re "55") (str.to.re "666"))) (re.++ (re.+ (re.union (str.to.re "333") (str.to.re "444"))) (re.union (re.union (str.to.re "00") (str.to.re "1")) (re.+ (str.to.re "2")))))))))))))))))))))))))))))))))))))))))))))))
(check-sat)